17	4
9	10	31	12	
0	0	0	0	0	3	2	3	4	
7	0	0	0	10	1	8	
8	9	0	0	0	3	10	12	17	
8	0	7	0	0	3	5	6	15	
7	0	0	9	0	3	7	11	17	
150	0	0	0	1	3	9	17	17	
175	0	0	0	2	1	17	
200	0	0	7	0	2	9	17	
175	0	2	0	0	3	17	17	17	
250	0	0	2	0	2	14	16	
125	0	0	0	1	3	13	14	17	
75	0	0	6	0	3	13	17	17	
3	0	6	0	0	1	17	
1	4	0	0	0	1	17	
1	0	0	7	0	2	17	17	
5	0	0	0	9	3	17	17	17	
0	0	0	0	0	0	
